(set-info :smt-lib-version 2.6)
(set-logic QF_NIA)
(set-info :source |
Generated by: Cristina Borralleras, Daniel Larraz, Albert Oliveras, Enric Rodriguez-Carbonell, Albert Rubio
Generated on: 2017-04-27
Generator: VeryMax
Application: Termination proving
Target solver: barcelogic
|)
(set-info :license "https://creativecommons.org/licenses/by/4.0/")
(set-info :category "industrial")
(set-info :status sat)
(declare-fun Nl7arg11 () Int)
(declare-fun Nl7arg21 () Int)
(declare-fun Nl7arg31 () Int)
(declare-fun Nl7arg41 () Int)
(declare-fun Nl7arg51 () Int)
(declare-fun Nl7arg12 () Int)
(declare-fun Nl7arg22 () Int)
(declare-fun Nl7arg32 () Int)
(declare-fun Nl7arg42 () Int)
(declare-fun Nl7arg52 () Int)
(declare-fun lam0n0 () Int)
(declare-fun lam0n1 () Int)
(declare-fun lam0n2 () Int)
(declare-fun lam0n3 () Int)
(declare-fun lam0n4 () Int)
(declare-fun lam0n5 () Int)
(declare-fun lam0n6 () Int)
(declare-fun lam0n7 () Int)
(declare-fun lam0n8 () Int)
(declare-fun lam0n9 () Int)
(declare-fun lam0n10 () Int)
(declare-fun lam0n11 () Int)
(declare-fun UndefCntr0_CT () Int)
(declare-fun Nl7CT1 () Int)
(declare-fun Nl7CT2 () Int)
(declare-fun UndefCntr0_arg1 () Int)
(declare-fun UndefCntr0_arg2 () Int)
(declare-fun UndefCntr0_arg3 () Int)
(declare-fun UndefCntr0_arg4 () Int)
(declare-fun UndefCntr0_arg5 () Int)
(declare-fun UndefCntr0_undef86 () Int)
(declare-fun UndefCntr0_undef87 () Int)
(declare-fun UndefCntr0_undef88 () Int)
(declare-fun UndefCntr0_undef89 () Int)
(declare-fun UndefCntr0_undef90 () Int)
(declare-fun lam1n0 () Int)
(declare-fun lam1n1 () Int)
(declare-fun lam1n2 () Int)
(declare-fun lam1n3 () Int)
(declare-fun lam1n4 () Int)
(declare-fun lam1n5 () Int)
(declare-fun lam1n6 () Int)
(declare-fun lam1n7 () Int)
(declare-fun lam1n8 () Int)
(declare-fun lam1n9 () Int)
(declare-fun lam1n10 () Int)
(declare-fun lam1n11 () Int)
(declare-fun lam2n0 () Int)
(declare-fun lam2n1 () Int)
(declare-fun lam2n2 () Int)
(declare-fun lam2n3 () Int)
(declare-fun lam2n4 () Int)
(declare-fun lam2n5 () Int)
(declare-fun lam2n6 () Int)
(declare-fun lam2n7 () Int)
(declare-fun lam2n8 () Int)
(declare-fun lam2n9 () Int)
(declare-fun lam2n10 () Int)
(declare-fun lam2n11 () Int)
(declare-fun lam3n0 () Int)
(declare-fun lam3n1 () Int)
(declare-fun lam3n2 () Int)
(declare-fun lam3n3 () Int)
(declare-fun lam3n4 () Int)
(declare-fun lam3n5 () Int)
(declare-fun lam3n6 () Int)
(declare-fun lam3n7 () Int)
(declare-fun lam3n8 () Int)
(declare-fun UndefCntr1_CT () Int)
(declare-fun UndefCntr1_arg1 () Int)
(declare-fun UndefCntr1_arg2 () Int)
(declare-fun UndefCntr1_arg3 () Int)
(declare-fun UndefCntr1_arg4 () Int)
(declare-fun UndefCntr1_arg5 () Int)
(declare-fun UndefCntr1_undef92 () Int)
(declare-fun UndefCntr1_undef93 () Int)
(declare-fun UndefCntr1_undef94 () Int)
(declare-fun UndefCntr1_undef95 () Int)
(declare-fun UndefCntr1_undef96 () Int)
(declare-fun lam4n0 () Int)
(declare-fun lam4n1 () Int)
(declare-fun lam4n2 () Int)
(declare-fun lam4n3 () Int)
(declare-fun lam4n4 () Int)
(declare-fun lam4n5 () Int)
(declare-fun lam4n6 () Int)
(declare-fun lam4n7 () Int)
(declare-fun lam4n8 () Int)
(declare-fun lam5n0 () Int)
(declare-fun lam5n1 () Int)
(declare-fun lam5n2 () Int)
(declare-fun lam5n3 () Int)
(declare-fun lam5n4 () Int)
(declare-fun lam5n5 () Int)
(declare-fun lam5n6 () Int)
(declare-fun lam5n7 () Int)
(declare-fun lam5n8 () Int)
(declare-fun lam6n0 () Int)
(declare-fun lam6n1 () Int)
(declare-fun lam6n2 () Int)
(declare-fun lam6n3 () Int)
(declare-fun lam6n4 () Int)
(declare-fun lam6n5 () Int)
(declare-fun lam6n6 () Int)
(declare-fun lam6n7 () Int)
(declare-fun lam6n8 () Int)
(declare-fun lam7n0 () Int)
(declare-fun lam7n1 () Int)
(declare-fun lam7n2 () Int)
(declare-fun lam7n3 () Int)
(declare-fun lam7n4 () Int)
(declare-fun lam7n5 () Int)
(declare-fun lam7n6 () Int)
(declare-fun lam7n7 () Int)
(declare-fun lam7n8 () Int)
(declare-fun undef1 () Int)
(declare-fun undef98 () Int)
(declare-fun undef82 () Int)
(declare-fun undef2 () Int)
(declare-fun undef80 () Int)
(declare-fun undef81 () Int)
(declare-fun undef83 () Int)
(declare-fun undef84 () Int)
(declare-fun FV_arg1_2 () Int)
(declare-fun FV_arg2_2 () Int)
(declare-fun FV_arg3_2 () Int)
(declare-fun FV_arg4_2 () Int)
(declare-fun FV_arg5_2 () Int)
(declare-fun lam8n0 () Int)
(declare-fun lam8n1 () Int)
(declare-fun lam8n2 () Int)
(declare-fun lam8n3 () Int)
(declare-fun lam8n4 () Int)
(declare-fun lam8n5 () Int)
(declare-fun lam8n6 () Int)
(declare-fun lam9n0 () Int)
(declare-fun lam9n1 () Int)
(declare-fun lam9n2 () Int)
(declare-fun lam9n3 () Int)
(declare-fun lam9n4 () Int)
(declare-fun lam9n5 () Int)
(declare-fun lam9n6 () Int)
(declare-fun UndefDef0undef88_CT () Int)
(declare-fun UndefDef0undef88_arg1 () Int)
(declare-fun UndefDef0undef88_arg2 () Int)
(declare-fun UndefDef0undef88_arg3 () Int)
(declare-fun UndefDef0undef88_arg4 () Int)
(declare-fun UndefDef0undef88_arg5 () Int)
(declare-fun lam10n0 () Int)
(declare-fun lam10n1 () Int)
(declare-fun lam10n2 () Int)
(declare-fun lam10n3 () Int)
(declare-fun lam10n4 () Int)
(declare-fun lam10n5 () Int)
(declare-fun lam10n6 () Int)
(declare-fun lam11n0 () Int)
(declare-fun lam11n1 () Int)
(declare-fun lam11n2 () Int)
(declare-fun lam11n3 () Int)
(declare-fun lam11n4 () Int)
(declare-fun lam11n5 () Int)
(declare-fun lam11n6 () Int)
(declare-fun lam12n0 () Int)
(declare-fun lam12n1 () Int)
(declare-fun lam12n2 () Int)
(declare-fun lam12n3 () Int)
(declare-fun lam12n4 () Int)
(declare-fun lam12n5 () Int)
(declare-fun lam12n6 () Int)
(declare-fun lam13n0 () Int)
(declare-fun lam13n1 () Int)
(declare-fun lam13n2 () Int)
(declare-fun lam13n3 () Int)
(declare-fun lam13n4 () Int)
(declare-fun lam13n5 () Int)
(declare-fun lam13n6 () Int)
(declare-fun FV_undef86_0 () Int)
(declare-fun FV_undef87_0 () Int)
(declare-fun FV_arg1_0 () Int)
(declare-fun FV_arg2_0 () Int)
(declare-fun FV_arg3_0 () Int)
(declare-fun FV_arg4_0 () Int)
(declare-fun FV_arg5_0 () Int)
(declare-fun FV_undef88_0 () Int)
(declare-fun FV_undef89_0 () Int)
(declare-fun FV_undef90_0 () Int)
(declare-fun FV_undef92_1 () Int)
(declare-fun FV_undef93_1 () Int)
(declare-fun FV_undef94_1 () Int)
(declare-fun FV_arg1_1 () Int)
(declare-fun FV_arg2_1 () Int)
(declare-fun FV_arg3_1 () Int)
(declare-fun FV_arg4_1 () Int)
(declare-fun FV_arg5_1 () Int)
(declare-fun FV_undef95_1 () Int)
(declare-fun FV_undef96_1 () Int)
(declare-fun lam14n0 () Int)
(declare-fun lam14n1 () Int)
(declare-fun lam14n2 () Int)
(declare-fun lam14n3 () Int)
(declare-fun lam14n4 () Int)
(declare-fun lam15n0 () Int)
(declare-fun lam15n1 () Int)
(declare-fun lam15n2 () Int)
(declare-fun lam15n3 () Int)
(declare-fun lam16n0 () Int)
(declare-fun lam16n1 () Int)
(declare-fun lam16n2 () Int)
(declare-fun lam16n3 () Int)
(declare-fun lam17n0 () Int)
(declare-fun lam17n1 () Int)
(declare-fun lam17n2 () Int)
(declare-fun lam17n3 () Int)
(declare-fun FV_arg2_3 () Int)
(declare-fun FV_arg3_3 () Int)
(declare-fun FV_arg1_3 () Int)
(declare-fun FV_arg4_3 () Int)
(declare-fun FV_arg5_3 () Int)
(declare-fun FV_undef88_3 () Int)
(declare-fun FV_undef86_3 () Int)
(declare-fun FV_undef87_3 () Int)
(declare-fun FV_undef92_3 () Int)
(declare-fun FV_undef93_3 () Int)
(declare-fun FV_undef94_3 () Int)
(assert ( and ( <= ( - 1 ) Nl7arg11 ) ( <= Nl7arg11 1 ) ( <= ( - 1 ) Nl7arg21 ) ( <= Nl7arg21 1 ) ( <= ( - 1 ) Nl7arg31 ) ( <= Nl7arg31 1 ) ( <= ( - 1 ) Nl7arg41 ) ( <= Nl7arg41 1 ) ( <= ( - 1 ) Nl7arg51 ) ( <= Nl7arg51 1 ) ( <= ( - 1 ) Nl7arg12 ) ( <= Nl7arg12 1 ) ( <= ( - 1 ) Nl7arg22 ) ( <= Nl7arg22 1 ) ( <= ( - 1 ) Nl7arg32 ) ( <= Nl7arg32 1 ) ( <= ( - 1 ) Nl7arg42 ) ( <= Nl7arg42 1 ) ( <= ( - 1 ) Nl7arg52 ) ( <= Nl7arg52 1 ) ))
(assert ( or ( and ( >= lam0n0 0 ) ( >= lam0n1 0 ) ( >= lam0n2 0 ) ( >= lam0n3 0 ) ( >= lam0n4 0 ) ( >= lam0n5 0 ) ( >= lam0n6 0 ) ( >= lam0n7 0 ) ( >= lam0n8 0 ) ( >= lam0n9 0 ) ( >= lam0n10 0 ) ( >= lam0n11 0 ) ( > ( + ( * 1 lam0n2 ) ( * 1 lam0n3 ) ( * 2 lam0n4 ) ( * 2 lam0n5 ) ( * 2 lam0n6 ) ( * ( - 2 ) lam0n7 ) ( * 3 lam0n8 ) ( * UndefCntr0_CT lam0n9 ) ( * Nl7CT1 lam0n10 ) ( * Nl7CT2 lam0n11 ) ( - 1 ) ) 0 ) ( = ( + ( * ( - 1 ) lam0n2 ) ( * ( - 1 ) lam0n8 ) ( * UndefCntr0_arg1 lam0n9 ) ( * Nl7arg11 lam0n10 ) ( * Nl7arg12 lam0n11 ) ) 0 ) ( = ( + ( * ( - 1 ) lam0n0 ) ( * ( - 1 ) lam0n4 ) ( * UndefCntr0_arg2 lam0n9 ) ( * Nl7arg21 lam0n10 ) ( * Nl7arg22 lam0n11 ) ) 0 ) ( = ( + ( * ( - 1 ) lam0n1 ) ( * ( - 1 ) lam0n7 ) ( * UndefCntr0_arg3 lam0n9 ) ( * Nl7arg31 lam0n10 ) ( * Nl7arg32 lam0n11 ) ) 0 ) ( = ( + ( * UndefCntr0_arg4 lam0n9 ) ( * Nl7arg41 lam0n10 ) ( * Nl7arg42 lam0n11 ) ) 0 ) ( = ( + ( * UndefCntr0_arg5 lam0n9 ) ( * Nl7arg51 lam0n10 ) ( * Nl7arg52 lam0n11 ) ) 0 ) ( = ( + ( * ( - 1 ) lam0n3 ) ( * UndefCntr0_undef86 lam0n9 ) ) 0 ) ( = ( + ( * ( - 1 ) lam0n5 ) ( * UndefCntr0_undef87 lam0n9 ) ) 0 ) ( = ( + ( * 1 lam0n0 ) ( * 1 lam0n2 ) ( * ( - 1 ) lam0n6 ) ( * 1 lam0n7 ) ( * UndefCntr0_undef88 lam0n9 ) ) 0 ) ( = ( * UndefCntr0_undef89 lam0n9 ) 0 ) ( = ( * UndefCntr0_undef90 lam0n9 ) 0 ) ) ( and ( >= lam1n0 0 ) ( >= lam1n1 0 ) ( >= lam1n2 0 ) ( >= lam1n3 0 ) ( >= lam1n4 0 ) ( >= lam1n5 0 ) ( >= lam1n6 0 ) ( >= lam1n7 0 ) ( >= lam1n8 0 ) ( >= lam1n9 0 ) ( >= lam1n10 0 ) ( >= lam1n11 0 ) ( > ( + ( * 1 lam1n2 ) ( * 1 lam1n3 ) ( * 2 lam1n4 ) ( * 2 lam1n5 ) ( * 2 lam1n6 ) ( * ( - 2 ) lam1n7 ) ( * 3 lam1n8 ) ( * UndefCntr0_CT lam1n9 ) ( * Nl7CT1 lam1n10 ) ( * Nl7CT2 lam1n11 ) ( - 1 ( + ( + ( + ( + ( + Nl7CT1 ( * Nl7arg11 0 ) ) ( * Nl7arg21 0 ) ) ( * Nl7arg31 0 ) ) ( * Nl7arg41 0 ) ) ( * Nl7arg51 0 ) ) ) ) 0 ) ( = ( + ( * ( - 1 ) lam1n2 ) ( * ( - 1 ) lam1n8 ) ( * UndefCntr0_arg1 lam1n9 ) ( * Nl7arg11 lam1n10 ) ( * Nl7arg12 lam1n11 ) ) 0 ) ( = ( + ( * ( - 1 ) lam1n0 ) ( * ( - 1 ) lam1n4 ) ( * UndefCntr0_arg2 lam1n9 ) ( * Nl7arg21 lam1n10 ) ( * Nl7arg22 lam1n11 ) ) 0 ) ( = ( + ( * ( - 1 ) lam1n1 ) ( * ( - 1 ) lam1n7 ) ( * UndefCntr0_arg3 lam1n9 ) ( * Nl7arg31 lam1n10 ) ( * Nl7arg32 lam1n11 ) ) 0 ) ( = ( + ( * UndefCntr0_arg4 lam1n9 ) ( * Nl7arg41 lam1n10 ) ( * Nl7arg42 lam1n11 ) ) 0 ) ( = ( + ( * UndefCntr0_arg5 lam1n9 ) ( * Nl7arg51 lam1n10 ) ( * Nl7arg52 lam1n11 ) ) 0 ) ( = ( + ( * ( - 1 ) lam1n3 ) ( * UndefCntr0_undef86 lam1n9 ) ( - ( + 0 ( * Nl7arg11 1 ) ) ) ) 0 ) ( = ( + ( * ( - 1 ) lam1n5 ) ( * UndefCntr0_undef87 lam1n9 ) ( - ( + 0 ( * Nl7arg21 1 ) ) ) ) 0 ) ( = ( + ( * 1 lam1n0 ) ( * 1 lam1n2 ) ( * ( - 1 ) lam1n6 ) ( * 1 lam1n7 ) ( * UndefCntr0_undef88 lam1n9 ) ( - ( + 0 ( * Nl7arg31 1 ) ) ) ) 0 ) ( = ( + ( * UndefCntr0_undef89 lam1n9 ) ( - ( + 0 ( * Nl7arg41 1 ) ) ) ) 0 ) ( = ( + ( * UndefCntr0_undef90 lam1n9 ) ( - ( + 0 ( * Nl7arg51 1 ) ) ) ) 0 ) ) ))
(assert ( or ( and ( >= lam0n0 0 ) ( >= lam0n1 0 ) ( >= lam0n2 0 ) ( >= lam0n3 0 ) ( >= lam0n4 0 ) ( >= lam0n5 0 ) ( >= lam0n6 0 ) ( >= lam0n7 0 ) ( >= lam0n8 0 ) ( >= lam0n9 0 ) ( >= lam0n10 0 ) ( >= lam0n11 0 ) ( > ( + ( * 1 lam0n2 ) ( * 1 lam0n3 ) ( * 2 lam0n4 ) ( * 2 lam0n5 ) ( * 2 lam0n6 ) ( * ( - 2 ) lam0n7 ) ( * 3 lam0n8 ) ( * UndefCntr0_CT lam0n9 ) ( * Nl7CT1 lam0n10 ) ( * Nl7CT2 lam0n11 ) ( - 1 ) ) 0 ) ( = ( + ( * ( - 1 ) lam0n2 ) ( * ( - 1 ) lam0n8 ) ( * UndefCntr0_arg1 lam0n9 ) ( * Nl7arg11 lam0n10 ) ( * Nl7arg12 lam0n11 ) ) 0 ) ( = ( + ( * ( - 1 ) lam0n0 ) ( * ( - 1 ) lam0n4 ) ( * UndefCntr0_arg2 lam0n9 ) ( * Nl7arg21 lam0n10 ) ( * Nl7arg22 lam0n11 ) ) 0 ) ( = ( + ( * ( - 1 ) lam0n1 ) ( * ( - 1 ) lam0n7 ) ( * UndefCntr0_arg3 lam0n9 ) ( * Nl7arg31 lam0n10 ) ( * Nl7arg32 lam0n11 ) ) 0 ) ( = ( + ( * UndefCntr0_arg4 lam0n9 ) ( * Nl7arg41 lam0n10 ) ( * Nl7arg42 lam0n11 ) ) 0 ) ( = ( + ( * UndefCntr0_arg5 lam0n9 ) ( * Nl7arg51 lam0n10 ) ( * Nl7arg52 lam0n11 ) ) 0 ) ( = ( + ( * ( - 1 ) lam0n3 ) ( * UndefCntr0_undef86 lam0n9 ) ) 0 ) ( = ( + ( * ( - 1 ) lam0n5 ) ( * UndefCntr0_undef87 lam0n9 ) ) 0 ) ( = ( + ( * 1 lam0n0 ) ( * 1 lam0n2 ) ( * ( - 1 ) lam0n6 ) ( * 1 lam0n7 ) ( * UndefCntr0_undef88 lam0n9 ) ) 0 ) ( = ( * UndefCntr0_undef89 lam0n9 ) 0 ) ( = ( * UndefCntr0_undef90 lam0n9 ) 0 ) ) ( and ( >= lam2n0 0 ) ( >= lam2n1 0 ) ( >= lam2n2 0 ) ( >= lam2n3 0 ) ( >= lam2n4 0 ) ( >= lam2n5 0 ) ( >= lam2n6 0 ) ( >= lam2n7 0 ) ( >= lam2n8 0 ) ( >= lam2n9 0 ) ( >= lam2n10 0 ) ( >= lam2n11 0 ) ( > ( + ( * 1 lam2n2 ) ( * 1 lam2n3 ) ( * 2 lam2n4 ) ( * 2 lam2n5 ) ( * 2 lam2n6 ) ( * ( - 2 ) lam2n7 ) ( * 3 lam2n8 ) ( * UndefCntr0_CT lam2n9 ) ( * Nl7CT1 lam2n10 ) ( * Nl7CT2 lam2n11 ) ( - 1 ( + ( + ( + ( + ( + Nl7CT2 ( * Nl7arg12 0 ) ) ( * Nl7arg22 0 ) ) ( * Nl7arg32 0 ) ) ( * Nl7arg42 0 ) ) ( * Nl7arg52 0 ) ) ) ) 0 ) ( = ( + ( * ( - 1 ) lam2n2 ) ( * ( - 1 ) lam2n8 ) ( * UndefCntr0_arg1 lam2n9 ) ( * Nl7arg11 lam2n10 ) ( * Nl7arg12 lam2n11 ) ) 0 ) ( = ( + ( * ( - 1 ) lam2n0 ) ( * ( - 1 ) lam2n4 ) ( * UndefCntr0_arg2 lam2n9 ) ( * Nl7arg21 lam2n10 ) ( * Nl7arg22 lam2n11 ) ) 0 ) ( = ( + ( * ( - 1 ) lam2n1 ) ( * ( - 1 ) lam2n7 ) ( * UndefCntr0_arg3 lam2n9 ) ( * Nl7arg31 lam2n10 ) ( * Nl7arg32 lam2n11 ) ) 0 ) ( = ( + ( * UndefCntr0_arg4 lam2n9 ) ( * Nl7arg41 lam2n10 ) ( * Nl7arg42 lam2n11 ) ) 0 ) ( = ( + ( * UndefCntr0_arg5 lam2n9 ) ( * Nl7arg51 lam2n10 ) ( * Nl7arg52 lam2n11 ) ) 0 ) ( = ( + ( * ( - 1 ) lam2n3 ) ( * UndefCntr0_undef86 lam2n9 ) ( - ( + 0 ( * Nl7arg12 1 ) ) ) ) 0 ) ( = ( + ( * ( - 1 ) lam2n5 ) ( * UndefCntr0_undef87 lam2n9 ) ( - ( + 0 ( * Nl7arg22 1 ) ) ) ) 0 ) ( = ( + ( * 1 lam2n0 ) ( * 1 lam2n2 ) ( * ( - 1 ) lam2n6 ) ( * 1 lam2n7 ) ( * UndefCntr0_undef88 lam2n9 ) ( - ( + 0 ( * Nl7arg32 1 ) ) ) ) 0 ) ( = ( + ( * UndefCntr0_undef89 lam2n9 ) ( - ( + 0 ( * Nl7arg42 1 ) ) ) ) 0 ) ( = ( + ( * UndefCntr0_undef90 lam2n9 ) ( - ( + 0 ( * Nl7arg52 1 ) ) ) ) 0 ) ) ))
(assert ( or ( and ( >= lam3n0 0 ) ( >= lam3n1 0 ) ( >= lam3n2 0 ) ( >= lam3n3 0 ) ( >= lam3n4 0 ) ( >= lam3n5 0 ) ( >= lam3n6 0 ) ( >= lam3n7 0 ) ( >= lam3n8 0 ) ( > ( + ( * 1 lam3n0 ) ( * 1 lam3n1 ) ( * 2 lam3n2 ) ( * 5 lam3n3 ) ( * 3 lam3n4 ) ( * 3 lam3n5 ) ( * UndefCntr1_CT lam3n6 ) ( * Nl7CT1 lam3n7 ) ( * Nl7CT2 lam3n8 ) ( - 1 ) ) 0 ) ( = ( + ( * ( - 1 ) lam3n4 ) ( * UndefCntr1_arg1 lam3n6 ) ( * Nl7arg11 lam3n7 ) ( * Nl7arg12 lam3n8 ) ) 0 ) ( = ( + ( * ( - 1 ) lam3n5 ) ( * UndefCntr1_arg2 lam3n6 ) ( * Nl7arg21 lam3n7 ) ( * Nl7arg22 lam3n8 ) ) 0 ) ( = ( + ( * ( - 1 ) lam3n0 ) ( * UndefCntr1_arg3 lam3n6 ) ( * Nl7arg31 lam3n7 ) ( * Nl7arg32 lam3n8 ) ) 0 ) ( = ( + ( * UndefCntr1_arg4 lam3n6 ) ( * Nl7arg41 lam3n7 ) ( * Nl7arg42 lam3n8 ) ) 0 ) ( = ( + ( * UndefCntr1_arg5 lam3n6 ) ( * Nl7arg51 lam3n7 ) ( * Nl7arg52 lam3n8 ) ) 0 ) ( = ( + ( * ( - 1 ) lam3n1 ) ( * UndefCntr1_undef92 lam3n6 ) ) 0 ) ( = ( + ( * ( - 1 ) lam3n2 ) ( * UndefCntr1_undef93 lam3n6 ) ) 0 ) ( = ( + ( * ( - 1 ) lam3n3 ) ( * UndefCntr1_undef94 lam3n6 ) ) 0 ) ( = ( * UndefCntr1_undef95 lam3n6 ) 0 ) ( = ( * UndefCntr1_undef96 lam3n6 ) 0 ) ) ( and ( >= lam4n0 0 ) ( >= lam4n1 0 ) ( >= lam4n2 0 ) ( >= lam4n3 0 ) ( >= lam4n4 0 ) ( >= lam4n5 0 ) ( >= lam4n6 0 ) ( >= lam4n7 0 ) ( >= lam4n8 0 ) ( > ( + ( * 1 lam4n0 ) ( * 1 lam4n1 ) ( * 2 lam4n2 ) ( * 5 lam4n3 ) ( * 3 lam4n4 ) ( * 3 lam4n5 ) ( * UndefCntr1_CT lam4n6 ) ( * Nl7CT1 lam4n7 ) ( * Nl7CT2 lam4n8 ) ( - 1 ( + ( + ( + ( + ( + Nl7CT1 ( * Nl7arg11 0 ) ) ( * Nl7arg21 0 ) ) ( * Nl7arg31 0 ) ) ( * Nl7arg41 0 ) ) ( * Nl7arg51 0 ) ) ) ) 0 ) ( = ( + ( * ( - 1 ) lam4n4 ) ( * UndefCntr1_arg1 lam4n6 ) ( * Nl7arg11 lam4n7 ) ( * Nl7arg12 lam4n8 ) ) 0 ) ( = ( + ( * ( - 1 ) lam4n5 ) ( * UndefCntr1_arg2 lam4n6 ) ( * Nl7arg21 lam4n7 ) ( * Nl7arg22 lam4n8 ) ) 0 ) ( = ( + ( * ( - 1 ) lam4n0 ) ( * UndefCntr1_arg3 lam4n6 ) ( * Nl7arg31 lam4n7 ) ( * Nl7arg32 lam4n8 ) ) 0 ) ( = ( + ( * UndefCntr1_arg4 lam4n6 ) ( * Nl7arg41 lam4n7 ) ( * Nl7arg42 lam4n8 ) ) 0 ) ( = ( + ( * UndefCntr1_arg5 lam4n6 ) ( * Nl7arg51 lam4n7 ) ( * Nl7arg52 lam4n8 ) ) 0 ) ( = ( + ( * ( - 1 ) lam4n1 ) ( * UndefCntr1_undef92 lam4n6 ) ( - ( + 0 ( * Nl7arg11 1 ) ) ) ) 0 ) ( = ( + ( * ( - 1 ) lam4n2 ) ( * UndefCntr1_undef93 lam4n6 ) ( - ( + 0 ( * Nl7arg21 1 ) ) ) ) 0 ) ( = ( + ( * ( - 1 ) lam4n3 ) ( * UndefCntr1_undef94 lam4n6 ) ( - ( + 0 ( * Nl7arg31 1 ) ) ) ) 0 ) ( = ( + ( * UndefCntr1_undef95 lam4n6 ) ( - ( + 0 ( * Nl7arg41 1 ) ) ) ) 0 ) ( = ( + ( * UndefCntr1_undef96 lam4n6 ) ( - ( + 0 ( * Nl7arg51 1 ) ) ) ) 0 ) ) ))
(assert ( or ( and ( >= lam3n0 0 ) ( >= lam3n1 0 ) ( >= lam3n2 0 ) ( >= lam3n3 0 ) ( >= lam3n4 0 ) ( >= lam3n5 0 ) ( >= lam3n6 0 ) ( >= lam3n7 0 ) ( >= lam3n8 0 ) ( > ( + ( * 1 lam3n0 ) ( * 1 lam3n1 ) ( * 2 lam3n2 ) ( * 5 lam3n3 ) ( * 3 lam3n4 ) ( * 3 lam3n5 ) ( * UndefCntr1_CT lam3n6 ) ( * Nl7CT1 lam3n7 ) ( * Nl7CT2 lam3n8 ) ( - 1 ) ) 0 ) ( = ( + ( * ( - 1 ) lam3n4 ) ( * UndefCntr1_arg1 lam3n6 ) ( * Nl7arg11 lam3n7 ) ( * Nl7arg12 lam3n8 ) ) 0 ) ( = ( + ( * ( - 1 ) lam3n5 ) ( * UndefCntr1_arg2 lam3n6 ) ( * Nl7arg21 lam3n7 ) ( * Nl7arg22 lam3n8 ) ) 0 ) ( = ( + ( * ( - 1 ) lam3n0 ) ( * UndefCntr1_arg3 lam3n6 ) ( * Nl7arg31 lam3n7 ) ( * Nl7arg32 lam3n8 ) ) 0 ) ( = ( + ( * UndefCntr1_arg4 lam3n6 ) ( * Nl7arg41 lam3n7 ) ( * Nl7arg42 lam3n8 ) ) 0 ) ( = ( + ( * UndefCntr1_arg5 lam3n6 ) ( * Nl7arg51 lam3n7 ) ( * Nl7arg52 lam3n8 ) ) 0 ) ( = ( + ( * ( - 1 ) lam3n1 ) ( * UndefCntr1_undef92 lam3n6 ) ) 0 ) ( = ( + ( * ( - 1 ) lam3n2 ) ( * UndefCntr1_undef93 lam3n6 ) ) 0 ) ( = ( + ( * ( - 1 ) lam3n3 ) ( * UndefCntr1_undef94 lam3n6 ) ) 0 ) ( = ( * UndefCntr1_undef95 lam3n6 ) 0 ) ( = ( * UndefCntr1_undef96 lam3n6 ) 0 ) ) ( and ( >= lam5n0 0 ) ( >= lam5n1 0 ) ( >= lam5n2 0 ) ( >= lam5n3 0 ) ( >= lam5n4 0 ) ( >= lam5n5 0 ) ( >= lam5n6 0 ) ( >= lam5n7 0 ) ( >= lam5n8 0 ) ( > ( + ( * 1 lam5n0 ) ( * 1 lam5n1 ) ( * 2 lam5n2 ) ( * 5 lam5n3 ) ( * 3 lam5n4 ) ( * 3 lam5n5 ) ( * UndefCntr1_CT lam5n6 ) ( * Nl7CT1 lam5n7 ) ( * Nl7CT2 lam5n8 ) ( - 1 ( + ( + ( + ( + ( + Nl7CT2 ( * Nl7arg12 0 ) ) ( * Nl7arg22 0 ) ) ( * Nl7arg32 0 ) ) ( * Nl7arg42 0 ) ) ( * Nl7arg52 0 ) ) ) ) 0 ) ( = ( + ( * ( - 1 ) lam5n4 ) ( * UndefCntr1_arg1 lam5n6 ) ( * Nl7arg11 lam5n7 ) ( * Nl7arg12 lam5n8 ) ) 0 ) ( = ( + ( * ( - 1 ) lam5n5 ) ( * UndefCntr1_arg2 lam5n6 ) ( * Nl7arg21 lam5n7 ) ( * Nl7arg22 lam5n8 ) ) 0 ) ( = ( + ( * ( - 1 ) lam5n0 ) ( * UndefCntr1_arg3 lam5n6 ) ( * Nl7arg31 lam5n7 ) ( * Nl7arg32 lam5n8 ) ) 0 ) ( = ( + ( * UndefCntr1_arg4 lam5n6 ) ( * Nl7arg41 lam5n7 ) ( * Nl7arg42 lam5n8 ) ) 0 ) ( = ( + ( * UndefCntr1_arg5 lam5n6 ) ( * Nl7arg51 lam5n7 ) ( * Nl7arg52 lam5n8 ) ) 0 ) ( = ( + ( * ( - 1 ) lam5n1 ) ( * UndefCntr1_undef92 lam5n6 ) ( - ( + 0 ( * Nl7arg12 1 ) ) ) ) 0 ) ( = ( + ( * ( - 1 ) lam5n2 ) ( * UndefCntr1_undef93 lam5n6 ) ( - ( + 0 ( * Nl7arg22 1 ) ) ) ) 0 ) ( = ( + ( * ( - 1 ) lam5n3 ) ( * UndefCntr1_undef94 lam5n6 ) ( - ( + 0 ( * Nl7arg32 1 ) ) ) ) 0 ) ( = ( + ( * UndefCntr1_undef95 lam5n6 ) ( - ( + 0 ( * Nl7arg42 1 ) ) ) ) 0 ) ( = ( + ( * UndefCntr1_undef96 lam5n6 ) ( - ( + 0 ( * Nl7arg52 1 ) ) ) ) 0 ) ) ))
(assert ( and ( <= ( + Nl7CT1 ( * Nl7arg11 FV_arg1_2 ) ( * Nl7arg21 FV_arg2_2 ) ( * Nl7arg31 FV_arg3_2 ) ( * Nl7arg41 FV_arg4_2 ) ( * Nl7arg51 FV_arg5_2 ) ) 0 ) ( <= ( + Nl7CT2 ( * Nl7arg12 FV_arg1_2 ) ( * Nl7arg22 FV_arg2_2 ) ( * Nl7arg32 FV_arg3_2 ) ( * Nl7arg42 FV_arg4_2 ) ( * Nl7arg52 FV_arg5_2 ) ) 0 ) ))
(assert ( or ( not ( = UndefCntr0_arg1 0 ) ) ( not ( = UndefCntr0_arg2 0 ) ) ( not ( = UndefCntr0_arg3 0 ) ) ( not ( = UndefCntr0_arg4 0 ) ) ( not ( = UndefCntr0_arg5 0 ) ) ( not ( = UndefCntr0_undef86 0 ) ) ( not ( = UndefCntr0_undef87 0 ) ) ( not ( = UndefCntr0_undef88 0 ) ) ( not ( = UndefCntr0_undef89 0 ) ) ( not ( = UndefCntr0_undef90 0 ) ) ( = UndefCntr0_CT 0 ) ))
(assert ( or ( and ( = UndefCntr0_arg1 0 ) ( = UndefCntr0_arg2 0 ) ( = UndefCntr0_arg3 0 ) ( = UndefCntr0_arg4 0 ) ( = UndefCntr0_arg5 0 ) ) ( or ( not ( = UndefCntr0_undef86 0 ) ) ( not ( = UndefCntr0_undef87 0 ) ) ( not ( = UndefCntr0_undef88 0 ) ) ( not ( = UndefCntr0_undef89 0 ) ) ( not ( = UndefCntr0_undef90 0 ) ) ) ))
(assert ( or ( not ( = UndefCntr1_arg1 0 ) ) ( not ( = UndefCntr1_arg2 0 ) ) ( not ( = UndefCntr1_arg3 0 ) ) ( not ( = UndefCntr1_arg4 0 ) ) ( not ( = UndefCntr1_arg5 0 ) ) ( not ( = UndefCntr1_undef92 0 ) ) ( not ( = UndefCntr1_undef93 0 ) ) ( not ( = UndefCntr1_undef94 0 ) ) ( not ( = UndefCntr1_undef95 0 ) ) ( not ( = UndefCntr1_undef96 0 ) ) ( = UndefCntr1_CT 0 ) ))
(assert ( or ( and ( = UndefCntr1_arg1 0 ) ( = UndefCntr1_arg2 0 ) ( = UndefCntr1_arg3 0 ) ( = UndefCntr1_arg4 0 ) ( = UndefCntr1_arg5 0 ) ) ( or ( not ( = UndefCntr1_undef92 0 ) ) ( not ( = UndefCntr1_undef93 0 ) ) ( not ( = UndefCntr1_undef94 0 ) ) ( not ( = UndefCntr1_undef95 0 ) ) ( not ( = UndefCntr1_undef96 0 ) ) ) ))
(assert ( or ( and ( >= lam8n0 0 ) ( >= lam8n1 0 ) ( >= lam8n2 0 ) ( >= lam8n3 0 ) ( >= lam8n4 0 ) ( >= lam8n5 0 ) ( >= lam8n6 0 ) ( > ( + ( * 1 lam8n1 ) ( * 2 lam8n2 ) ( * 2 lam8n3 ) ( * 3 lam8n4 ) ( * Nl7CT1 lam8n5 ) ( * Nl7CT2 lam8n6 ) ( - 1 ) ) 0 ) ( = ( + ( * ( - 1 ) lam8n4 ) ( * Nl7arg11 lam8n5 ) ( * Nl7arg12 lam8n6 ) ) 0 ) ( = ( + ( * ( - 1 ) lam8n2 ) ( * Nl7arg21 lam8n5 ) ( * Nl7arg22 lam8n6 ) ) 0 ) ( = ( + ( * ( - 1 ) lam8n0 ) ( * Nl7arg31 lam8n5 ) ( * Nl7arg32 lam8n6 ) ) 0 ) ( = ( + ( * Nl7arg41 lam8n5 ) ( * Nl7arg42 lam8n6 ) ) 0 ) ( = ( + ( * Nl7arg51 lam8n5 ) ( * Nl7arg52 lam8n6 ) ) 0 ) ( = ( * ( - 1 ) lam8n1 ) 0 ) ( = ( * ( - 1 ) lam8n3 ) 0 ) ) ( and ( and ( >= lam9n0 0 ) ( >= lam9n1 0 ) ( >= lam9n2 0 ) ( >= lam9n3 0 ) ( >= lam9n4 0 ) ( >= lam9n5 0 ) ( >= lam9n6 0 ) ( > ( + ( * 1 lam9n1 ) ( * 2 lam9n2 ) ( * 2 lam9n3 ) ( * 3 lam9n4 ) ( * Nl7CT1 lam9n5 ) ( * Nl7CT2 lam9n6 ) ( - 1 ( + ( + 0 0 ) ( * 1 UndefDef0undef88_CT ) ) ) ) 0 ) ( = ( + ( * ( - 1 ) lam9n4 ) ( * Nl7arg11 lam9n5 ) ( * Nl7arg12 lam9n6 ) ( - ( * UndefDef0undef88_arg1 1 ) ) ) 0 ) ( = ( + ( * ( - 1 ) lam9n2 ) ( * Nl7arg21 lam9n5 ) ( * Nl7arg22 lam9n6 ) ( - ( + ( - 1 ) ( * UndefDef0undef88_arg2 1 ) ) ) ) 0 ) ( = ( + ( * ( - 1 ) lam9n0 ) ( * Nl7arg31 lam9n5 ) ( * Nl7arg32 lam9n6 ) ( - ( * UndefDef0undef88_arg3 1 ) ) ) 0 ) ( = ( + ( * Nl7arg41 lam9n5 ) ( * Nl7arg42 lam9n6 ) ( - ( * UndefDef0undef88_arg4 1 ) ) ) 0 ) ( = ( + ( * Nl7arg51 lam9n5 ) ( * Nl7arg52 lam9n6 ) ( - ( * UndefDef0undef88_arg5 1 ) ) ) 0 ) ( = ( * ( - 1 ) lam9n1 ) 0 ) ( = ( * ( - 1 ) lam9n3 ) 0 ) ) ( and ( >= lam10n0 0 ) ( >= lam10n1 0 ) ( >= lam10n2 0 ) ( >= lam10n3 0 ) ( >= lam10n4 0 ) ( >= lam10n5 0 ) ( >= lam10n6 0 ) ( > ( + ( * 1 lam10n1 ) ( * 2 lam10n2 ) ( * 2 lam10n3 ) ( * 3 lam10n4 ) ( * Nl7CT1 lam10n5 ) ( * Nl7CT2 lam10n6 ) ( - 1 ( + ( + 1 0 ) ( * 1 UndefDef0undef88_CT ) ) ) ) 0 ) ( = ( + ( * ( - 1 ) lam10n4 ) ( * Nl7arg11 lam10n5 ) ( * Nl7arg12 lam10n6 ) ( - ( + ( - 1 ) ( * UndefDef0undef88_arg1 1 ) ) ) ) 0 ) ( = ( + ( * ( - 1 ) lam10n2 ) ( * Nl7arg21 lam10n5 ) ( * Nl7arg22 lam10n6 ) ( - ( * UndefDef0undef88_arg2 1 ) ) ) 0 ) ( = ( + ( * ( - 1 ) lam10n0 ) ( * Nl7arg31 lam10n5 ) ( * Nl7arg32 lam10n6 ) ( - ( * UndefDef0undef88_arg3 1 ) ) ) 0 ) ( = ( + ( * Nl7arg41 lam10n5 ) ( * Nl7arg42 lam10n6 ) ( - ( * UndefDef0undef88_arg4 1 ) ) ) 0 ) ( = ( + ( * Nl7arg51 lam10n5 ) ( * Nl7arg52 lam10n6 ) ( - ( * UndefDef0undef88_arg5 1 ) ) ) 0 ) ( = ( * ( - 1 ) lam10n1 ) 0 ) ( = ( * ( - 1 ) lam10n3 ) 0 ) ) ( and ( >= lam11n0 0 ) ( >= lam11n1 0 ) ( >= lam11n2 0 ) ( >= lam11n3 0 ) ( >= lam11n4 0 ) ( >= lam11n5 0 ) ( >= lam11n6 0 ) ( > ( + ( * 1 lam11n1 ) ( * 2 lam11n2 ) ( * 2 lam11n3 ) ( * 3 lam11n4 ) ( * Nl7CT1 lam11n5 ) ( * Nl7CT2 lam11n6 ) ( - 1 ( + 2 ( * ( - 1 ) UndefDef0undef88_CT ) ) ) ) 0 ) ( = ( + ( * ( - 1 ) lam11n4 ) ( * Nl7arg11 lam11n5 ) ( * Nl7arg12 lam11n6 ) ( - ( * UndefDef0undef88_arg1 ( - 1 ) ) ) ) 0 ) ( = ( + ( * ( - 1 ) lam11n2 ) ( * Nl7arg21 lam11n5 ) ( * Nl7arg22 lam11n6 ) ( - ( * UndefDef0undef88_arg2 ( - 1 ) ) ) ) 0 ) ( = ( + ( * ( - 1 ) lam11n0 ) ( * Nl7arg31 lam11n5 ) ( * Nl7arg32 lam11n6 ) ( - ( * UndefDef0undef88_arg3 ( - 1 ) ) ) ) 0 ) ( = ( + ( * Nl7arg41 lam11n5 ) ( * Nl7arg42 lam11n6 ) ( - ( * UndefDef0undef88_arg4 ( - 1 ) ) ) ) 0 ) ( = ( + ( * Nl7arg51 lam11n5 ) ( * Nl7arg52 lam11n6 ) ( - ( * UndefDef0undef88_arg5 ( - 1 ) ) ) ) 0 ) ( = ( * ( - 1 ) lam11n1 ) 0 ) ( = ( * ( - 1 ) lam11n3 ) 0 ) ) ( and ( >= lam12n0 0 ) ( >= lam12n1 0 ) ( >= lam12n2 0 ) ( >= lam12n3 0 ) ( >= lam12n4 0 ) ( >= lam12n5 0 ) ( >= lam12n6 0 ) ( > ( + ( * 1 lam12n1 ) ( * 2 lam12n2 ) ( * 2 lam12n3 ) ( * 3 lam12n4 ) ( * Nl7CT1 lam12n5 ) ( * Nl7CT2 lam12n6 ) ( - 1 ( + ( + ( - 2 ) 0 ) ( * 1 UndefDef0undef88_CT ) ) ) ) 0 ) ( = ( + ( * ( - 1 ) lam12n4 ) ( * Nl7arg11 lam12n5 ) ( * Nl7arg12 lam12n6 ) ( - ( * UndefDef0undef88_arg1 1 ) ) ) 0 ) ( = ( + ( * ( - 1 ) lam12n2 ) ( * Nl7arg21 lam12n5 ) ( * Nl7arg22 lam12n6 ) ( - ( * UndefDef0undef88_arg2 1 ) ) ) 0 ) ( = ( + ( * ( - 1 ) lam12n0 ) ( * Nl7arg31 lam12n5 ) ( * Nl7arg32 lam12n6 ) ( - ( + ( - 1 ) ( * UndefDef0undef88_arg3 1 ) ) ) ) 0 ) ( = ( + ( * Nl7arg41 lam12n5 ) ( * Nl7arg42 lam12n6 ) ( - ( * UndefDef0undef88_arg4 1 ) ) ) 0 ) ( = ( + ( * Nl7arg51 lam12n5 ) ( * Nl7arg52 lam12n6 ) ( - ( * UndefDef0undef88_arg5 1 ) ) ) 0 ) ( = ( * ( - 1 ) lam12n1 ) 0 ) ( = ( * ( - 1 ) lam12n3 ) 0 ) ) ( or ( = UndefCntr0_undef88 0 ) ( and ( >= lam13n0 0 ) ( >= lam13n1 0 ) ( >= lam13n2 0 ) ( >= lam13n3 0 ) ( >= lam13n4 0 ) ( >= lam13n5 0 ) ( >= lam13n6 0 ) ( > ( + ( * 1 lam13n1 ) ( * 2 lam13n2 ) ( * 2 lam13n3 ) ( * 3 lam13n4 ) ( * Nl7CT1 lam13n5 ) ( * Nl7CT2 lam13n6 ) ( - 1 ( + ( + ( + ( + ( + ( + ( + ( + ( + ( + UndefCntr0_CT 0 ) 0 ) 0 ) 0 ) 0 ) 0 ) 0 ) ( * UndefCntr0_undef88 UndefDef0undef88_CT ) ) 0 ) 0 ) ) ) 0 ) ( = ( + ( * ( - 1 ) lam13n4 ) ( * Nl7arg11 lam13n5 ) ( * Nl7arg12 lam13n6 ) ( - ( + UndefCntr0_arg1 ( * UndefDef0undef88_arg1 UndefCntr0_undef88 ) ) ) ) 0 ) ( = ( + ( * ( - 1 ) lam13n2 ) ( * Nl7arg21 lam13n5 ) ( * Nl7arg22 lam13n6 ) ( - ( + UndefCntr0_arg2 ( * UndefDef0undef88_arg2 UndefCntr0_undef88 ) ) ) ) 0 ) ( = ( + ( * ( - 1 ) lam13n0 ) ( * Nl7arg31 lam13n5 ) ( * Nl7arg32 lam13n6 ) ( - ( + UndefCntr0_arg3 ( * UndefDef0undef88_arg3 UndefCntr0_undef88 ) ) ) ) 0 ) ( = ( + ( * Nl7arg41 lam13n5 ) ( * Nl7arg42 lam13n6 ) ( - ( + UndefCntr0_arg4 ( * UndefDef0undef88_arg4 UndefCntr0_undef88 ) ) ) ) 0 ) ( = ( + ( * Nl7arg51 lam13n5 ) ( * Nl7arg52 lam13n6 ) ( - ( + UndefCntr0_arg5 ( * UndefDef0undef88_arg5 UndefCntr0_undef88 ) ) ) ) 0 ) ( = ( + ( * ( - 1 ) lam13n1 ) ( - UndefCntr0_undef86 ) ) 0 ) ( = ( + ( * ( - 1 ) lam13n3 ) ( - UndefCntr0_undef87 ) ) 0 ) ( = ( - UndefCntr0_undef89 ) 0 ) ( = ( - UndefCntr0_undef90 ) 0 ) ) ) ) ))
(assert ( or ( = UndefCntr0_undef86 0 ) ( and ( and ( = UndefCntr0_arg1 0 ) ( = UndefCntr0_arg2 0 ) ( = UndefCntr0_arg3 0 ) ( = UndefCntr0_arg4 0 ) ( = UndefCntr0_arg5 0 ) ( = UndefCntr0_undef88 0 ) ( = UndefCntr0_undef89 0 ) ( = UndefCntr0_undef90 0 ) ( = UndefCntr0_undef87 0 ) ) ( or ( and ( <= ( + 1 ( * ( - 1 ) FV_undef86_0 ) ) 0 ) ( <= ( + UndefCntr0_CT ( * UndefCntr0_undef86 FV_undef86_0 ) ( * UndefCntr0_undef87 FV_undef87_0 ) ( * UndefCntr0_arg1 FV_arg1_0 ) ( * UndefCntr0_arg2 FV_arg2_0 ) ( * UndefCntr0_arg3 FV_arg3_0 ) ( * UndefCntr0_arg4 FV_arg4_0 ) ( * UndefCntr0_arg5 FV_arg5_0 ) ( * UndefCntr0_undef88 FV_undef88_0 ) ( * UndefCntr0_undef89 FV_undef89_0 ) ( * UndefCntr0_undef90 FV_undef90_0 ) ) 0 ) ) ( and ( <= ( + 1 ( * ( - 1 ) FV_undef86_0 ) ) 0 ) ( <= ( + UndefCntr0_CT ( * UndefCntr0_undef86 FV_undef86_0 ) ( * UndefCntr0_undef87 FV_undef87_0 ) ( * UndefCntr0_arg1 FV_arg1_0 ) ( * UndefCntr0_arg2 FV_arg2_0 ) ( * UndefCntr0_arg3 FV_arg3_0 ) ( * UndefCntr0_arg4 FV_arg4_0 ) ( * UndefCntr0_arg5 FV_arg5_0 ) ( * UndefCntr0_undef88 FV_undef88_0 ) ( * UndefCntr0_undef89 FV_undef89_0 ) ( * UndefCntr0_undef90 FV_undef90_0 ) ) 0 ) ) ) ) ))
(assert ( or ( = UndefCntr0_undef87 0 ) ( and ( and ( = UndefCntr0_arg1 0 ) ( = UndefCntr0_arg2 0 ) ( = UndefCntr0_arg3 0 ) ( = UndefCntr0_arg4 0 ) ( = UndefCntr0_arg5 0 ) ( = UndefCntr0_undef88 0 ) ( = UndefCntr0_undef89 0 ) ( = UndefCntr0_undef90 0 ) ( = UndefCntr0_undef86 0 ) ) ( or ( and ( <= ( + 2 ( * ( - 1 ) FV_undef87_0 ) ) 0 ) ( <= ( + UndefCntr0_CT ( * UndefCntr0_undef86 FV_undef86_0 ) ( * UndefCntr0_undef87 FV_undef87_0 ) ( * UndefCntr0_arg1 FV_arg1_0 ) ( * UndefCntr0_arg2 FV_arg2_0 ) ( * UndefCntr0_arg3 FV_arg3_0 ) ( * UndefCntr0_arg4 FV_arg4_0 ) ( * UndefCntr0_arg5 FV_arg5_0 ) ( * UndefCntr0_undef88 FV_undef88_0 ) ( * UndefCntr0_undef89 FV_undef89_0 ) ( * UndefCntr0_undef90 FV_undef90_0 ) ) 0 ) ) ( and ( <= ( + 2 ( * ( - 1 ) FV_undef87_0 ) ) 0 ) ( <= ( + UndefCntr0_CT ( * UndefCntr0_undef86 FV_undef86_0 ) ( * UndefCntr0_undef87 FV_undef87_0 ) ( * UndefCntr0_arg1 FV_arg1_0 ) ( * UndefCntr0_arg2 FV_arg2_0 ) ( * UndefCntr0_arg3 FV_arg3_0 ) ( * UndefCntr0_arg4 FV_arg4_0 ) ( * UndefCntr0_arg5 FV_arg5_0 ) ( * UndefCntr0_undef88 FV_undef88_0 ) ( * UndefCntr0_undef89 FV_undef89_0 ) ( * UndefCntr0_undef90 FV_undef90_0 ) ) 0 ) ) ) ) ))
(assert ( or ( = UndefCntr1_undef92 0 ) ( and ( and ( = UndefCntr1_arg1 0 ) ( = UndefCntr1_arg2 0 ) ( = UndefCntr1_arg3 0 ) ( = UndefCntr1_arg4 0 ) ( = UndefCntr1_arg5 0 ) ( = UndefCntr1_undef95 0 ) ( = UndefCntr1_undef96 0 ) ( = UndefCntr1_undef93 0 ) ( = UndefCntr1_undef94 0 ) ) ( or ( and ( <= ( + 1 ( * ( - 1 ) FV_undef92_1 ) ) 0 ) ( <= ( + UndefCntr1_CT ( * UndefCntr1_undef92 FV_undef92_1 ) ( * UndefCntr1_undef93 FV_undef93_1 ) ( * UndefCntr1_undef94 FV_undef94_1 ) ( * UndefCntr1_arg1 FV_arg1_1 ) ( * UndefCntr1_arg2 FV_arg2_1 ) ( * UndefCntr1_arg3 FV_arg3_1 ) ( * UndefCntr1_arg4 FV_arg4_1 ) ( * UndefCntr1_arg5 FV_arg5_1 ) ( * UndefCntr1_undef95 FV_undef95_1 ) ( * UndefCntr1_undef96 FV_undef96_1 ) ) 0 ) ) ( and ( <= ( + 1 ( * ( - 1 ) FV_undef92_1 ) ) 0 ) ( <= ( + UndefCntr1_CT ( * UndefCntr1_undef92 FV_undef92_1 ) ( * UndefCntr1_undef93 FV_undef93_1 ) ( * UndefCntr1_undef94 FV_undef94_1 ) ( * UndefCntr1_arg1 FV_arg1_1 ) ( * UndefCntr1_arg2 FV_arg2_1 ) ( * UndefCntr1_arg3 FV_arg3_1 ) ( * UndefCntr1_arg4 FV_arg4_1 ) ( * UndefCntr1_arg5 FV_arg5_1 ) ( * UndefCntr1_undef95 FV_undef95_1 ) ( * UndefCntr1_undef96 FV_undef96_1 ) ) 0 ) ) ) ) ))
(assert ( or ( = UndefCntr1_undef93 0 ) ( and ( and ( = UndefCntr1_arg1 0 ) ( = UndefCntr1_arg2 0 ) ( = UndefCntr1_arg3 0 ) ( = UndefCntr1_arg4 0 ) ( = UndefCntr1_arg5 0 ) ( = UndefCntr1_undef95 0 ) ( = UndefCntr1_undef96 0 ) ( = UndefCntr1_undef92 0 ) ( = UndefCntr1_undef94 0 ) ) ( or ( and ( <= ( + 2 ( * ( - 1 ) FV_undef93_1 ) ) 0 ) ( <= ( + UndefCntr1_CT ( * UndefCntr1_undef92 FV_undef92_1 ) ( * UndefCntr1_undef93 FV_undef93_1 ) ( * UndefCntr1_undef94 FV_undef94_1 ) ( * UndefCntr1_arg1 FV_arg1_1 ) ( * UndefCntr1_arg2 FV_arg2_1 ) ( * UndefCntr1_arg3 FV_arg3_1 ) ( * UndefCntr1_arg4 FV_arg4_1 ) ( * UndefCntr1_arg5 FV_arg5_1 ) ( * UndefCntr1_undef95 FV_undef95_1 ) ( * UndefCntr1_undef96 FV_undef96_1 ) ) 0 ) ) ( and ( <= ( + 2 ( * ( - 1 ) FV_undef93_1 ) ) 0 ) ( <= ( + UndefCntr1_CT ( * UndefCntr1_undef92 FV_undef92_1 ) ( * UndefCntr1_undef93 FV_undef93_1 ) ( * UndefCntr1_undef94 FV_undef94_1 ) ( * UndefCntr1_arg1 FV_arg1_1 ) ( * UndefCntr1_arg2 FV_arg2_1 ) ( * UndefCntr1_arg3 FV_arg3_1 ) ( * UndefCntr1_arg4 FV_arg4_1 ) ( * UndefCntr1_arg5 FV_arg5_1 ) ( * UndefCntr1_undef95 FV_undef95_1 ) ( * UndefCntr1_undef96 FV_undef96_1 ) ) 0 ) ) ) ) ))
(assert ( or ( = UndefCntr1_undef94 0 ) ( and ( and ( = UndefCntr1_arg1 0 ) ( = UndefCntr1_arg2 0 ) ( = UndefCntr1_arg3 0 ) ( = UndefCntr1_arg4 0 ) ( = UndefCntr1_arg5 0 ) ( = UndefCntr1_undef95 0 ) ( = UndefCntr1_undef96 0 ) ( = UndefCntr1_undef92 0 ) ( = UndefCntr1_undef93 0 ) ) ( or ( and ( <= ( + 5 ( * ( - 1 ) FV_undef94_1 ) ) 0 ) ( <= ( + UndefCntr1_CT ( * UndefCntr1_undef92 FV_undef92_1 ) ( * UndefCntr1_undef93 FV_undef93_1 ) ( * UndefCntr1_undef94 FV_undef94_1 ) ( * UndefCntr1_arg1 FV_arg1_1 ) ( * UndefCntr1_arg2 FV_arg2_1 ) ( * UndefCntr1_arg3 FV_arg3_1 ) ( * UndefCntr1_arg4 FV_arg4_1 ) ( * UndefCntr1_arg5 FV_arg5_1 ) ( * UndefCntr1_undef95 FV_undef95_1 ) ( * UndefCntr1_undef96 FV_undef96_1 ) ) 0 ) ) ( and ( <= ( + 5 ( * ( - 1 ) FV_undef94_1 ) ) 0 ) ( <= ( + UndefCntr1_CT ( * UndefCntr1_undef92 FV_undef92_1 ) ( * UndefCntr1_undef93 FV_undef93_1 ) ( * UndefCntr1_undef94 FV_undef94_1 ) ( * UndefCntr1_arg1 FV_arg1_1 ) ( * UndefCntr1_arg2 FV_arg2_1 ) ( * UndefCntr1_arg3 FV_arg3_1 ) ( * UndefCntr1_arg4 FV_arg4_1 ) ( * UndefCntr1_arg5 FV_arg5_1 ) ( * UndefCntr1_undef95 FV_undef95_1 ) ( * UndefCntr1_undef96 FV_undef96_1 ) ) 0 ) ) ) ) ))
(assert ( or ( and ( >= lam14n0 0 ) ( >= lam14n1 0 ) ( >= lam14n2 0 ) ( >= lam14n3 0 ) ( >= lam14n4 0 ) ( > ( + ( * 2 lam14n1 ) ( * ( - 2 ) lam14n2 ) ( * Nl7CT1 lam14n3 ) ( * Nl7CT2 lam14n4 ) ( - 1 ) ) 0 ) ( = ( + ( * 1 lam14n2 ) ( * Nl7arg11 lam14n3 ) ( * Nl7arg12 lam14n4 ) ) 0 ) ( = ( + ( * ( - 1 ) lam14n1 ) ( * Nl7arg21 lam14n3 ) ( * Nl7arg22 lam14n4 ) ) 0 ) ( = ( + ( * ( - 1 ) lam14n0 ) ( * Nl7arg31 lam14n3 ) ( * Nl7arg32 lam14n4 ) ) 0 ) ( = ( + ( * Nl7arg41 lam14n3 ) ( * Nl7arg42 lam14n4 ) ) 0 ) ( = ( + ( * Nl7arg51 lam14n3 ) ( * Nl7arg52 lam14n4 ) ) 0 ) ) ( and ( >= lam15n0 0 ) ( >= lam15n1 0 ) ( >= lam15n2 0 ) ( >= lam15n3 0 ) ( > ( + ( * ( - 1 ) lam15n1 ) ( * Nl7CT1 lam15n2 ) ( * Nl7CT2 lam15n3 ) ( - 1 ) ) 0 ) ( = ( + ( * Nl7arg11 lam15n2 ) ( * Nl7arg12 lam15n3 ) ) 0 ) ( = ( + ( * 1 lam15n1 ) ( * Nl7arg21 lam15n2 ) ( * Nl7arg22 lam15n3 ) ) 0 ) ( = ( + ( * ( - 1 ) lam15n0 ) ( * Nl7arg31 lam15n2 ) ( * Nl7arg32 lam15n3 ) ) 0 ) ( = ( + ( * Nl7arg41 lam15n2 ) ( * Nl7arg42 lam15n3 ) ) 0 ) ( = ( + ( * Nl7arg51 lam15n2 ) ( * Nl7arg52 lam15n3 ) ) 0 ) ) ( and ( >= lam16n0 0 ) ( >= lam16n1 0 ) ( >= lam16n2 0 ) ( >= lam16n3 0 ) ( > ( + ( * 1 lam16n0 ) ( * 2 lam16n1 ) ( * Nl7CT1 lam16n2 ) ( * Nl7CT2 lam16n3 ) ( - 1 ) ) 0 ) ( = ( + ( * Nl7arg11 lam16n2 ) ( * Nl7arg12 lam16n3 ) ) 0 ) ( = ( + ( * ( - 1 ) lam16n1 ) ( * Nl7arg21 lam16n2 ) ( * Nl7arg22 lam16n3 ) ) 0 ) ( = ( + ( * 1 lam16n0 ) ( * Nl7arg31 lam16n2 ) ( * Nl7arg32 lam16n3 ) ) 0 ) ( = ( + ( * Nl7arg41 lam16n2 ) ( * Nl7arg42 lam16n3 ) ) 0 ) ( = ( + ( * Nl7arg51 lam16n2 ) ( * Nl7arg52 lam16n3 ) ) 0 ) ) ( and ( >= lam17n0 0 ) ( >= lam17n1 0 ) ( >= lam17n2 0 ) ( >= lam17n3 0 ) ( > ( + ( * 1 lam17n0 ) ( * ( - 1 ) lam17n1 ) ( * Nl7CT1 lam17n2 ) ( * Nl7CT2 lam17n3 ) ( - 1 ) ) 0 ) ( = ( + ( * Nl7arg11 lam17n2 ) ( * Nl7arg12 lam17n3 ) ) 0 ) ( = ( + ( * 1 lam17n1 ) ( * Nl7arg21 lam17n2 ) ( * Nl7arg22 lam17n3 ) ) 0 ) ( = ( + ( * 1 lam17n0 ) ( * Nl7arg31 lam17n2 ) ( * Nl7arg32 lam17n3 ) ) 0 ) ( = ( + ( * Nl7arg41 lam17n2 ) ( * Nl7arg42 lam17n3 ) ) 0 ) ( = ( + ( * Nl7arg51 lam17n2 ) ( * Nl7arg52 lam17n3 ) ) 0 ) ) ))
(assert ( and ( and ( <= ( + Nl7CT1 ( * Nl7arg21 FV_arg2_3 ) ( * Nl7arg31 FV_arg3_3 ) ( * Nl7arg11 FV_arg1_3 ) ( * Nl7arg41 FV_arg4_3 ) ( * Nl7arg51 FV_arg5_3 ) ) 0 ) ( <= ( + Nl7CT2 ( * Nl7arg22 FV_arg2_3 ) ( * Nl7arg32 FV_arg3_3 ) ( * Nl7arg12 FV_arg1_3 ) ( * Nl7arg42 FV_arg4_3 ) ( * Nl7arg52 FV_arg5_3 ) ) 0 ) ) ( or ( and ( <= ( + ( * ( - 1 ) FV_arg2_3 ) FV_undef88_3 ) 0 ) ( <= ( * ( - 1 ) FV_arg3_3 ) 0 ) ( <= ( + 1 FV_undef88_3 ( * ( - 1 ) FV_arg1_3 ) ) 0 ) ( <= ( + 1 ( * ( - 1 ) FV_undef86_3 ) ) 0 ) ( <= ( + 2 ( * ( - 1 ) FV_arg2_3 ) ) 0 ) ( <= ( + 2 ( * ( - 1 ) FV_undef87_3 ) ) 0 ) ( <= ( + 2 ( * ( - 1 ) FV_undef88_3 ) ) 0 ) ( <= ( + ( - 2 ) FV_undef88_3 ( * ( - 1 ) FV_arg3_3 ) ) 0 ) ( <= ( + 3 ( * ( - 1 ) FV_arg1_3 ) ) 0 ) ) ( and ( <= ( + 1 ( * ( - 1 ) FV_arg3_3 ) ) 0 ) ( <= ( + 1 ( * ( - 1 ) FV_undef92_3 ) ) 0 ) ( <= ( + 2 ( * ( - 1 ) FV_undef93_3 ) ) 0 ) ( <= ( + 5 ( * ( - 1 ) FV_undef94_3 ) ) 0 ) ( <= ( + 3 ( * ( - 1 ) FV_arg1_3 ) ) 0 ) ( <= ( + 3 ( * ( - 1 ) FV_arg2_3 ) ) 0 ) ) ) ))
(check-sat)
(exit)
